39338 42089 
39643 41712 
39834 41585 
39477 41971 
39184 42154 
39595 41720 
39724 41698 
38960 42290 
37668 42648 
38000 42632 
38044 42628 
36568 42784 
36524 42788 
36883 42759 
37624 42652 
38359 42603 
37538 42756 
37623 42688 
38916 42294 
39209 42111 
38444 42535 
38737 42352 
38652 42420 
